solution status: gap limit reached
objective value:                          28502.85583
y#1                                                 1 	(obj:5700)
y#10                                                1 	(obj:5700)
y#36                                                1 	(obj:5700)
y#44                                                1 	(obj:5700)
y#59                                                1 	(obj:5700)
x#1#44                                              1 	(obj:0.04522)
x#2#1                                               1 	(obj:0.0969)
x#3#10                                              1 	(obj:0.02822)
x#4#1                                               1 	(obj:0.09197)
x#5#1                                               1 	(obj:0.03196)
x#6#10                                              1 	(obj:0.06239)
x#7#44                                              1 	(obj:0.01819)
x#8#1                                               1 	(obj:0.09741)
x#9#1                                               1 	(obj:0.03757)
x#10#44                                             1 	(obj:0.03043)
x#11#1                                              1 	(obj:0.0357)
x#12#59                                             1 	(obj:0.01513)
x#13#59                                             1 	(obj:0.01309)
x#14#44                                             1 	(obj:0.05406)
x#15#36                                             1 	(obj:0.0782)
x#16#10                                             1 	(obj:0.12138)
x#17#10                                             1 	(obj:0.02329)
x#18#10                                             1 	(obj:0.01666)
x#19#59                                             1 	(obj:0.04692)
x#20#59                                             1 	(obj:0.06868)
x#21#10                                             1 	(obj:0.10115)
x#22#1                                              1 	(obj:0.10931)
x#23#36                                             1 	(obj:0.04063)
x#24#44                                             1 	(obj:0.11951)
x#25#59                                             1 	(obj:0.03859)
x#26#59                                             1 	(obj:0.01173)
x#27#59                                             1 	(obj:0.04199)
x#28#36                                             1 	(obj:0.08058)
x#29#59                                             1 	(obj:0.01649)
x#30#10                                             1 	(obj:0.05423)
x#31#44                                             1 	(obj:0.04165)
x#32#36                                             1 	(obj:0.05338)
x#33#10                                             1 	(obj:0.03315)
x#34#1                                              1 	(obj:0.02295)
x#35#36                                             1 	(obj:0.02856)
x#36#36                                             1 	(obj:0.01428)
x#37#36                                             1 	(obj:0.0425)
x#38#1                                              1 	(obj:0.02924)
x#39#44                                             1 	(obj:0.0476)
x#40#10                                             1 	(obj:0.0221)
x#41#44                                             1 	(obj:0.07769)
x#42#36                                             1 	(obj:0.08109)
x#43#59                                             1 	(obj:0.01003)
x#44#1                                              1 	(obj:0.03502)
x#45#10                                             1 	(obj:0.01411)
x#46#44                                             1 	(obj:0.10098)
x#47#44                                             1 	(obj:0.05848)
x#48#36                                             1 	(obj:0.03451)
x#49#1                                              1 	(obj:0.08177)
x#50#36                                             1 	(obj:0.06545)
x#51#44                                             1 	(obj:0.10795)
x#52#59                                             1 	(obj:0.01411)
x#53#10                                             1 	(obj:0.0969)
x#54#1                                              1 	(obj:0.04148)
x#55#36                                             1 	(obj:0.04012)
x#56#59                                             1 	(obj:0.03315)
